\ Model H_UFL
\ LP format - for model browsing. Use MPS format to capture full model detail.
Minimize
  C56 + C57 + C58 + C59 + C60 + C61 + C62 + C63 + C64 + C65 + C66 + C67
   + C68 + C69 + C70 + C71 + C72 + C73 + C74 + C75 + C76 + C77 + C78 + C79
   + C80 + C81 + C82 + C83 + C84 + C85 + C86 + C87 + C88 + C89 + C90 + C91
   + C92 + C93 + C94 + C95
Subject To
 R0: C0 + C1 + C2 + C3 >= 29
 R1: C4 + C5 + C6 + C7 - C20 = 0
 R2: C8 + C9 + C10 + C11 - C21 = 0
 R3: C12 + C13 + C14 + C15 - C22 = 0
 R4: C16 + C17 + C18 + C19 - C23 = 0
 R5: C0 - C4 + C24 - C40 = 0
 R6: C1 - C5 + C25 - C41 = 0
 R7: C2 - C6 + C26 - C42 = 0
 R8: C3 - C7 + C27 - C43 = 0
 R9: C0 - C8 + C28 - C44 = 0
 R10: C1 - C9 + C29 - C45 = 0
 R11: C2 - C10 + C30 - C46 = 0
 R12: C3 - C11 + C31 - C47 = 0
 R13: C0 - C12 + C32 - C48 = 0
 R14: C1 - C13 + C33 - C49 = 0
 R15: C2 - C14 + C34 - C50 = 0
 R16: C3 - C15 + C35 - C51 = 0
 R17: C0 - C16 + C36 - C52 = 0
 R18: C1 - C17 + C37 - C53 = 0
 R19: C2 - C18 + C38 - C54 = 0
 R20: C3 - C19 + C39 - C55 = 0
 R21: C22 + C23 + C48 + C50 + C53 + C55 = 29
 R22: C20 - C56 + C60 = 10
 R23: C21 - C57 + C61 = 10
 R24: C22 - C58 + C62 = 10
 R25: C23 - C59 + C63 = 10
 R26: C40 - C64 + C80 = 3
 R27: C41 - C65 + C81 = 3
 R28: C42 - C66 + C82 = 30
 R29: C43 - C67 + C83 = 2
 R30: C44 - C68 + C84 = 30
 R31: C45 - C69 + C85 = 1
 R32: C46 - C70 + C86 = 4
 R33: C47 - C71 + C87 = 30
 R34: C48 - C72 + C88 = 3
 R35: C49 - C73 + C89 = 30
 R36: C50 - C74 + C90 = 3
 R37: C51 - C75 + C91 = 4
 R38: C52 - C76 + C92 = 30
 R39: C53 - C77 + C93 = 2
 R40: C54 - C78 + C94 = 30
 R41: C55 - C79 + C95 = 1
Bounds
End
